20171227 169600.00 147700.00
20171110 169601.71 147796.10
20170630 169601.71 147182.48
20161231 169211.71 144475.47
20161110 169211.71 144475.47
20160630 169211.71 144475.47
20151231 167140.11 146770.85
20150630 167140.11 146770.85
